4
22
48
40	30
1	3	8	11	5	5	30	4	
2	4	7	4	12	3	19	2	4	6	
3	2	6	5	6	10	
4	2	15	6	17	3	
5	2	5	6	12	5	
6	3	7	7	5	6	17	3	
7	1	9	8	
8	1	5	6	
9	2	6	10	9	6	
10	4	27	3	5	4	16	5	16	3	
11	1	6	4	
12	2	14	7	8	8	
13	2	27	3	13	7	
14	4	26	2	7	3	6	5	22	2	
15	4	13	5	30	3	19	4	13	4	
16	1	11	4	
17	1	15	3	
18	3	24	4	6	12	30	4	
19	1	4	8	
20	1	27	2	
21	2	18	3	7	8	
22	2	4	6	14	7	
